NAME : Tiny-HVRP
TYPE : HVRP
DIMENSION : 4
EDGE_WEIGHT_TYPE : EUC_2D

NODE_COORD_SECTION
1 30 40
2 35 44
3 40 42
4 32 36

DEMAND_SECTION
1 0
2 5
3 6
4 4

VEHICLE_TYPES
# id capacity fixed_cost var_cost
A 10  100 1 
B 12  120 1 
END_VEHICLE_TYPES

DEPOT_SECTION
1
-1
EOF
